certificates/rado_a12_c52_N33.drat
-29 2 -33 0
-5 2 -33 0
6 2 0
d 6 22 2 0
-30 -33 0
4 -33 0
-33 0
6 -2 0
-6 -2 0
d -6 -22 -2 0
-2 0
30 0
5 0
6 0
-13 0
-22 0
-25 0
-14 0
-26 0
-10 0
4 0
3 0
-8 0
-12 0
-9 0
-1 0
-24 0
-19 0
-7 0
-20 0
-23 0
-11 0
-21 0
0
